Test: fpga11_12_uns_rcr.cnf
Options: -no-inverting-opt -activity-nl-freq=1
WARNING: for repeatability, setting FPU to use double precision
============================[ Problem Statistics ]=============================
|                                                                             |
|  Number of symmetries:           42                                         |
|  Number of invertingSyms:         0                                         |
|  Number of variables:           264                                         |
|  Number of clauses:            1476                                         |
|  Parse time:                   0.00 s                                       |
|                                                                             |
============================[ Search Statistics ]==============================
| Conflicts |          ORIGINAL         |          LEARNT          | Progress |
|           |    Vars  Clauses Literals |    Limit  Clauses Lit/Cl |          |
===============================================================================
|       100 |     264     1476     3168 |      541      122     51 |  0.001 % |
|       250 |     264     1476     3168 |      595      364     47 |  0.001 % |
|       475 |     264     1476     3168 |      654      470     43 |  0.001 % |
|       812 |     264     1476     3168 |      720      351     37 |  0.001 % |
|      1318 |     264     1476     3168 |      792      411     37 |  0.001 % |
|      2077 |     264     1476     3168 |      871      566     36 |  0.001 % |
|      3216 |     264     1476     3168 |      958      633     39 |  0.001 % |
|      4924 |     264     1476     3168 |     1054      654     41 |  0.001 % |
|      7486 |     264     1476     3168 |     1160      667     30 |  0.001 % |
===============================================================================
restarts              : 31
conflicts             : 7800           (38998 /sec)
symconflicts          : 1407           (7035 /sec)
decisions             : 13748          (0.00 % random) (68736 /sec)
propagations          : 139802         (698968 /sec)
sympropagations       : 7904           (39518 /sec)
conflict literals     : 340801         (6.78 % deleted)
literals     : 340801         (6.78 % deleted)

HEURISTIC USAGES
random                : 0           
activity w/ lookahead : 0           
activity no lookahead : 13748       
original sp           : 0           
sym count             : 0           

Memory used           : 6.00 MB
CPU time              : 0.200012 s

UNSATISFIABLE
